
  22    0


   0   8 2 3 4 7 18 19 20 21 
   7   7 17 16 15 11 10 8 5 
   7   3 14 13 8 
   4   3 12 11 8 
   7   1 6 
   6   1 9 
   8   1 10 
   4   1 22
   9   1 22
   7   1 22
   1   1 22
   6   1 22
   8   1 22
   4   1 22
   4   1 22
   7   1 22
   1   1 22
   5   1 22
   1   1 22
   8   1 22
   8   1 22
   0   0 
